10 10 4

0 377 210 229 407 484 453 178 117 482 
339 0 276 306 248 315 154 189 193 423 
232 185 0 180 153 148 494 332 329 350 
352 83 430 0 340 166 140 69 279 330 
228 163 153 416 0 453 379 428 407 400 
288 96 300 417 278 0 435 96 137 289 
296 419 118 145 478 358 0 282 317 230 
128 92 460 408 477 329 60 0 393 281 
146 320 188 252 315 441 51 231 0 425 
437 485 61 432 280 186 256 376 163 0 

210.5 0 6
210.5 1 2
210.5 2 1
210.5 3 0
210.5 4 0
210.5 5 3
210.5 6 7
210.5 7 3
210.5 8 1
210.5 9 7

